c FILE /home/rafael/Documents/HappySet/MIHS/inputs/happygen/output/graph_scale_free_k4_p0.1_v50_20241127_082421.txt
c SOURCE This is a scale-free graph formed for the happy graph colouring problem.
c DESCRIPTION It was generated using the problem generator of Rhyd Lewis
c
c GRAPH STATS
c Seed                             = 1323582341
c Number of Nodes                  = 50
c Number of colours k              = 4
c Number of pre-assignments        = 5
c Number of links per new node     = 5
c Density                          = 0.191837
c 
c The degrees of nodes 1 to 50, respectively, are as follows 
c [22, 21, 19, 18, 18, 17, 17, 17, 16, 14, 14, 14, 12, 12, 12, 11, 10, 10, 10, 9, 9, 8, 7, 7, 7, 7, 
c  7, 6, 6, 6, 6, 6, 6, 6, 6, 6, 6, 5, 5, 5, 5, 5, 5, 5, 5, 5, 5, 5, 5, 5] 
c  
p edge 50 235 4
e 1 2
e 1 3
e 1 4
e 1 5
e 1 6
e 1 7
e 1 8
e 1 9
e 1 11
e 1 12
e 1 13
e 1 15
e 1 16
e 1 17
e 1 18
e 1 20
e 1 21
e 1 24
e 1 27
e 1 35
e 1 41
e 1 49
e 2 3
e 2 4
e 2 5
e 2 7
e 2 8
e 2 9
e 2 10
e 2 14
e 2 17
e 2 19
e 2 21
e 2 25
e 2 31
e 2 32
e 2 35
e 2 42
e 2 43
e 2 45
e 2 48
e 2 49
e 3 4
e 3 7
e 3 8
e 3 10
e 3 12
e 3 13
e 3 14
e 3 15
e 3 16
e 3 23
e 3 25
e 3 26
e 3 29
e 3 33
e 3 34
e 3 40
e 3 44
e 4 5
e 4 6
e 4 7
e 4 8
e 4 9
e 4 10
e 4 22
e 4 23
e 4 24
e 4 30
e 4 31
e 4 32
e 4 33
e 4 35
e 4 41
e 5 6
e 5 9
e 5 10
e 5 12
e 5 15
e 5 16
e 5 18
e 5 21
e 5 22
e 5 23
e 5 26
e 5 28
e 5 32
e 5 38
e 5 43
e 6 7
e 6 8
e 6 9
e 6 13
e 6 17
e 6 18
e 6 20
e 6 23
e 6 29
e 6 40
e 6 43
e 6 44
e 6 46
e 6 48
e 7 8
e 7 9
e 7 11
e 7 15
e 7 17
e 7 25
e 7 27
e 7 28
e 7 40
e 7 42
e 7 44
e 7 49
e 8 9
e 8 14
e 8 16
e 8 19
e 8 20
e 8 25
e 8 26
e 8 30
e 8 31
e 8 36
e 8 45
e 9 10
e 9 14
e 9 15
e 9 16
e 9 17
e 9 18
e 9 34
e 9 39
e 9 50
e 10 11
e 10 13
e 10 19
e 10 20
e 10 24
e 10 27
e 10 31
e 10 43
e 10 46
e 11 12
e 11 13
e 11 17
e 11 19
e 11 22
e 11 28
e 11 34
e 11 36
e 11 37
e 11 39
e 11 41
e 12 13
e 12 24
e 12 29
e 12 33
e 12 34
e 12 38
e 12 39
e 12 40
e 12 44
e 12 49
e 13 14
e 13 17
e 13 21
e 13 37
e 13 45
e 13 48
e 14 24
e 14 25
e 14 26
e 14 28
e 14 33
e 14 38
e 14 49
e 15 28
e 15 29
e 15 30
e 15 35
e 15 38
e 15 40
e 15 42
e 16 18
e 16 20
e 16 21
e 16 33
e 16 34
e 16 37
e 17 23
e 17 45
e 17 47
e 18 22
e 18 27
e 18 30
e 18 32
e 18 36
e 19 21
e 19 36
e 19 37
e 19 42
e 19 45
e 19 47
e 20 29
e 20 32
e 20 48
e 20 50
e 21 39
e 21 41
e 21 46
e 22 30
e 22 36
e 22 41
e 22 50
e 23 37
e 23 39
e 24 30
e 24 46
e 25 47
e 25 50
e 26 32
e 26 46
e 26 48
e 27 35
e 27 44
e 27 47
e 28 38
e 29 31
e 31 42
e 33 47
e 34 35
e 36 50
e 37 43
n 11 1
n 18 4
n 28 1
n 43 2
n 44 3
